%chk=complex.chk
%mem=100GB
%nprocshared=96
#p opt freq b3lyp/6-311++g(d,p) empiricaldispersion=gd3bj Counterpoise=2

Benzene-Methane Complex, Counterpoise Calculation

0 1 0 1 0 1
 C(Fragment=1)      0.00000000    1.20733000    0.69705200
 C(Fragment=1)      0.00000000    1.20733000   -0.69705200
 C(Fragment=1)      0.00000000    0.00000000   -1.39410300
 C(Fragment=1)      0.00000000   -1.20733000   -0.69705200
 C(Fragment=1)      0.00000000   -1.20733000    0.69705200
 C(Fragment=1)      0.00000000    0.00000000    1.39410300
 H(Fragment=1)      0.00000000    2.14611600    1.23906200
 H(Fragment=1)      0.00000000    2.14611600   -1.23906200
 H(Fragment=1)      0.00000000    0.00000000   -2.47812000
 H(Fragment=1)      0.00000000   -2.14611600   -1.23906200
 H(Fragment=1)      0.00000000   -2.14611600    1.23906200
 H(Fragment=1)      0.00000000    0.00000000    2.47812000
 C(Fragment=2)      1.65225649   -0.01188674    0.00000000
 H(Fragment=2)      1.98974257    0.07161203    1.03402307
 H(Fragment=2)      0.56170150   -0.01421215   -0.02751348
 H(Fragment=2)      2.02870586    0.83535862   -0.57492067
 H(Fragment=2)      2.02887605   -0.94030546   -0.43158892

